<number of tasks>
20


<number of equipment>
5


<cycle time>
1000


<investment costs>
1,17558
2,14067
3,6977
4,20638
5,17183


<task times>
1,311,357,-1,-1,314
2,-1,-1,522,-1,358
3,186,-1,-1,61,242
4,270,-1,-1,232,293
5,289,355,-1,-1,272
6,287,-1,-1,216,302
7,297,-1,-1,241,298
8,279,-1,-1,227,267
9,290,343,-1,-1,244
10,314,-1,-1,370,358
11,-1,-1,369,-1,291
12,285,316,-1,-1,212
13,297,359,-1,-1,305
14,252,290,-1,-1,254
15,319,-1,-1,317,307
16,303,368,-1,-1,319
17,-1,-1,390,-1,144
18,249,-1,-1,197,271
19,253,-1,-1,155,286
20,213,-1,-1,183,289


<precedence relations>
1,4
1,5
2,4
2,5
3,4
3,5
4,6
4,7
5,6
5,7
6,8
6,9
6,10
7,8
7,10
9,11
9,12
10,11
11,14
12,13
12,14
13,15
13,16
14,15
14,16
15,17
15,19
16,18
19,20


<task types>
1,2
2,1
3,3
4,3
5,2
6,3
7,3
8,3
9,2
10,3
11,1
12,2
13,2
14,2
15,3
16,2
17,1
18,3
19,3
20,3


<line depot>
1,1
2,0
3,0
4,0
5,6


<processing costs>
1,14400
2,7200
3,7200
4,7200
5,21600


<saving costs>
1,1755
2,1406
3,697
4,2063
5,1718


<end>
